language ESSENCE' 1.0

letting jobs = 102
letting horizon = 792
letting resourcesRenew = 2
letting resourcesNonrenew = 2
letting resourceLimits = [25, 25, 186, 147]
letting successors = [[2, 3, 4, 6, 7, 8, 9, 11, 14, 17, 18], [23, 21, 15, 13, 12, 10, 5], [31, 28, 25, 22, 16, 10], [23, 22, 21, 20, 19, 16, 15], [31, 27, 25, 22, 20, 19, 16], [24, 21, 13, 12], [31, 22, 10], [33, 27, 23, 21, 20, 16], [32, 31, 28, 25, 22, 19], [29, 27, 20, 19], [37, 35, 32, 29, 27, 26, 19], [40, 37, 34, 33, 30, 29, 28, 27, 26], [34, 33, 31, 30, 20], [40, 34, 30, 29, 20], [35, 33, 32, 30, 29, 27, 26], [45, 36, 34, 26, 24], [40, 37, 36, 35, 34, 33, 26], [36, 35, 34, 24], [45, 44, 40, 36, 34, 33, 30], [45, 37, 36, 35, 32, 26], [48, 45, 44, 43, 40, 38, 37, 36, 32], [44, 40, 36, 34, 30], [48, 44, 43, 40, 38, 36, 32], [44, 42, 40, 37, 30], [40, 37, 35, 29], [48, 47, 46, 44, 43, 41, 39, 38], [55, 48, 46, 45, 44, 42, 36], [47, 44, 39, 35], [52, 48, 46, 45, 43, 42, 41], [48, 46, 43, 39, 38], [48, 45, 43, 38, 37], [57, 51, 47, 46, 42, 39], [56, 55, 54, 52, 51, 47, 46, 43], [54, 52, 51, 48, 47, 43, 42], [56, 55, 53, 52, 51, 43, 41], [57, 56, 53, 52, 47, 41], [57, 56, 52, 41], [59, 57, 56, 54, 53, 51, 50, 49], [56, 55, 54, 52, 49], [57, 54, 51, 50, 47], [69, 59, 58, 54, 50, 49], [69, 66, 59, 58, 56, 53, 50], [69, 57, 50, 49], [69, 57, 56, 50], [67, 65, 63, 58, 51], [67, 61, 58, 53], [71, 69, 68, 65, 64, 61, 59], [70, 65, 62, 60, 58], [86, 73, 71, 68, 67, 65, 63, 61], [70, 68, 67, 64, 62, 60], [70, 68, 66, 64, 62, 60], [80, 69, 59, 58], [76, 73, 70, 68, 65, 64, 63, 62], [70, 65, 63, 60], [68, 67, 63, 60], [86, 76, 73, 68, 65, 63, 62], [86, 79, 76, 73, 70, 68, 66], [86, 85, 77, 71, 68, 64], [86, 85, 83, 82, 76, 75, 74, 73, 72, 67], [86, 85, 83, 82, 80, 75, 74, 73, 71], [79, 77, 76, 74, 66], [92, 85, 83, 80, 78, 77, 74], [83, 82, 79, 77, 75, 72], [83, 82, 75, 74], [90, 88, 87, 85, 83, 82, 75], [85, 83, 80, 78, 72], [92, 89, 88, 87, 81, 79, 77], [88, 82, 78, 72], [100, 91, 90, 87, 85, 81, 79, 78], [92, 87, 83, 78, 77], [81, 79, 78, 76], [101, 100, 99, 92, 91, 89, 87, 81], [100, 99, 92, 91, 90, 89, 87, 81], [100, 99, 90, 89, 88, 87, 81], [100, 99, 92, 91, 78], [101, 100, 99, 98, 96, 95, 90, 89], [100, 99, 98, 97, 94, 91, 90], [101, 98, 97, 89, 84], [101, 99, 98, 97, 96, 95, 94, 93], [101, 99, 98, 96, 95, 94, 90], [98, 97, 84], [99, 97, 84], [100, 99, 97, 95, 94], [96, 95, 94, 93], [99, 98, 97, 94], [100, 94, 89], [98, 94, 93], [101, 95], [93], [93], [96], [97], [102], [102], [102], [102], [102], [102], [102], [102], [102], []]
letting durations = [[0], [6, 8, 9], [2, 3, 4], [4, 9, 9], [4, 7, 8], [2, 7, 10], [3, 3, 5], [8, 9, 10], [6, 7, 10], [3, 7, 9], [7, 9, 10], [3, 4, 7], [3, 8, 9], [2, 3, 9], [6, 7, 9], [4, 5, 9], [2, 3, 7], [4, 7, 9], [1, 5, 8], [4, 5, 6], [1, 3, 9], [4, 4, 8], [1, 8, 9], [7, 8, 10], [8, 8, 9], [3, 5, 10], [1, 2, 7], [4, 8, 9], [4, 6, 6], [1, 5, 8], [3, 6, 6], [2, 3, 3], [2, 9, 10], [3, 5, 6], [1, 2, 7], [2, 3, 8], [1, 2, 5], [3, 6, 8], [1, 6, 7], [1, 6, 10], [1, 4, 5], [6, 8, 9], [3, 4, 10], [1, 2, 3], [2, 4, 6], [2, 6, 8], [2, 6, 7], [1, 2, 3], [1, 5, 7], [2, 6, 8], [4, 5, 7], [1, 6, 7], [3, 4, 8], [3, 4, 8], [1, 2, 4], [5, 8, 9], [1, 8, 9], [3, 8, 9], [4, 9, 10], [1, 4, 7], [5, 6, 10], [3, 5, 6], [5, 6, 10], [6, 8, 9], [3, 7, 8], [5, 5, 7], [6, 7, 9], [4, 6, 6], [3, 4, 8], [3, 6, 8], [4, 5, 10], [1, 5, 8], [1, 4, 9], [4, 6, 9], [4, 4, 6], [1, 5, 9], [1, 2, 5], [4, 7, 10], [3, 6, 9], [4, 7, 9], [1, 6, 7], [1, 4, 10], [2, 4, 4], [1, 5, 8], [4, 7, 9], [1, 2, 7], [3, 5, 7], [1, 4, 5], [2, 6, 7], [7, 7, 9], [1, 2, 10], [7, 8, 10], [8, 9, 10], [3, 5, 7], [1, 3, 10], [7, 8, 9], [2, 8, 9], [4, 5, 7], [3, 5, 9], [5, 6, 8], [2, 9, 9], [0]]
letting resourceUsage = [[[0, 0, 0, 0]], [[4, 0, 0, 9], [0, 3, 0, 7], [0, 3, 0, 6]], [[4, 0, 0, 6], [0, 1, 9, 0], [2, 0, 0, 4]], [[5, 0, 0, 2], [3, 0, 3, 0], [0, 2, 0, 1]], [[3, 0, 5, 0], [2, 0, 5, 0], [2, 0, 4, 0]], [[0, 4, 7, 0], [1, 0, 5, 0], [1, 0, 3, 0]], [[0, 4, 0, 8], [0, 3, 5, 0], [0, 2, 5, 0]], [[0, 4, 0, 10], [0, 4, 4, 0], [0, 3, 0, 4]], [[0, 2, 9, 0], [3, 0, 5, 0], [3, 0, 4, 0]], [[2, 0, 5, 0], [2, 0, 3, 0], [2, 0, 1, 0]], [[5, 0, 7, 0], [5, 0, 0, 3], [0, 1, 5, 0]], [[5, 0, 0, 4], [4, 0, 0, 3], [3, 0, 2, 0]], [[0, 4, 0, 4], [0, 3, 3, 0], [0, 2, 3, 0]], [[1, 0, 0, 6], [0, 4, 2, 0], [1, 0, 1, 0]], [[0, 5, 0, 4], [2, 0, 7, 0], [2, 0, 0, 2]], [[5, 0, 10, 0], [4, 0, 5, 0], [0, 2, 0, 7]], [[2, 0, 10, 0], [2, 0, 6, 0], [0, 3, 2, 0]], [[4, 0, 9, 0], [0, 4, 0, 3], [0, 4, 0, 1]], [[0, 4, 8, 0], [0, 3, 8, 0], [0, 3, 0, 4]], [[5, 0, 0, 8], [0, 1, 0, 6], [1, 0, 0, 2]], [[5, 0, 6, 0], [3, 0, 4, 0], [0, 1, 0, 3]], [[0, 2, 0, 9], [4, 0, 3, 0], [0, 1, 3, 0]], [[0, 4, 5, 0], [4, 0, 4, 0], [4, 0, 3, 0]], [[1, 0, 10, 0], [1, 0, 8, 0], [1, 0, 0, 3]], [[0, 4, 0, 4], [0, 3, 9, 0], [0, 2, 7, 0]], [[5, 0, 0, 9], [0, 3, 0, 8], [0, 3, 0, 7]], [[4, 0, 0, 5], [3, 0, 0, 4], [0, 1, 5, 0]], [[2, 0, 0, 9], [0, 1, 3, 0], [0, 1, 1, 0]], [[0, 3, 2, 0], [0, 3, 1, 0], [3, 0, 0, 9]], [[3, 0, 0, 6], [2, 0, 0, 6], [0, 2, 0, 5]], [[0, 2, 0, 6], [0, 1, 0, 5], [3, 0, 2, 0]], [[0, 3, 7, 0], [4, 0, 7, 0], [0, 1, 3, 0]], [[4, 0, 0, 2], [0, 4, 3, 0], [4, 0, 0, 1]], [[3, 0, 0, 3], [2, 0, 0, 3], [1, 0, 0, 3]], [[0, 5, 0, 9], [1, 0, 9, 0], [1, 0, 0, 4]], [[0, 5, 7, 0], [0, 4, 6, 0], [2, 0, 0, 1]], [[0, 2, 4, 0], [0, 2, 0, 5], [0, 2, 2, 0]], [[0, 4, 5, 0], [0, 4, 3, 0], [0, 4, 0, 2]], [[4, 0, 5, 0], [0, 2, 0, 3], [3, 0, 1, 0]], [[4, 0, 3, 0], [4, 0, 0, 3], [0, 2, 2, 0]], [[2, 0, 7, 0], [2, 0, 5, 0], [2, 0, 2, 0]], [[0, 4, 0, 1], [4, 0, 4, 0], [4, 0, 3, 0]], [[1, 0, 6, 0], [0, 1, 4, 0], [1, 0, 0, 1]], [[0, 4, 10, 0], [0, 4, 0, 6], [0, 4, 0, 4]], [[0, 4, 10, 0], [3, 0, 9, 0], [2, 0, 9, 0]], [[0, 3, 9, 0], [4, 0, 0, 3], [0, 3, 3, 0]], [[0, 3, 10, 0], [3, 0, 0, 7], [0, 2, 1, 0]], [[0, 3, 0, 10], [3, 0, 5, 0], [3, 0, 0, 5]], [[0, 4, 0, 10], [0, 3, 5, 0], [5, 0, 0, 9]], [[4, 0, 10, 0], [0, 1, 0, 5], [0, 1, 0, 3]], [[2, 0, 0, 3], [0, 3, 10, 0], [0, 2, 10, 0]], [[3, 0, 0, 5], [0, 1, 5, 0], [3, 0, 0, 2]], [[0, 3, 0, 8], [0, 2, 0, 8], [2, 0, 0, 7]], [[5, 0, 9, 0], [3, 0, 0, 3], [2, 0, 0, 2]], [[2, 0, 0, 8], [1, 0, 0, 7], [1, 0, 0, 4]], [[1, 0, 0, 4], [1, 0, 0, 2], [1, 0, 0, 1]], [[5, 0, 0, 8], [5, 0, 4, 0], [0, 4, 3, 0]], [[0, 3, 0, 4], [0, 3, 0, 3], [0, 1, 0, 4]], [[0, 4, 2, 0], [3, 0, 0, 6], [0, 4, 1, 0]], [[3, 0, 0, 8], [3, 0, 6, 0], [0, 4, 0, 5]], [[1, 0, 3, 0], [1, 0, 2, 0], [1, 0, 0, 3]], [[3, 0, 0, 1], [3, 0, 3, 0], [0, 3, 3, 0]], [[5, 0, 6, 0], [0, 2, 4, 0], [0, 2, 0, 1]], [[3, 0, 10, 0], [3, 0, 0, 6], [0, 4, 0, 4]], [[5, 0, 10, 0], [0, 1, 9, 0], [0, 1, 8, 0]], [[1, 0, 9, 0], [0, 2, 0, 3], [1, 0, 3, 0]], [[2, 0, 10, 0], [2, 0, 0, 7], [1, 0, 1, 0]], [[2, 0, 0, 10], [0, 4, 5, 0], [0, 3, 0, 5]], [[0, 4, 0, 10], [0, 4, 5, 0], [1, 0, 0, 9]], [[0, 1, 10, 0], [3, 0, 0, 5], [0, 1, 0, 3]], [[0, 5, 0, 3], [0, 4, 10, 0], [0, 3, 10, 0]], [[0, 2, 7, 0], [2, 0, 5, 0], [0, 1, 4, 0]], [[0, 5, 9, 0], [4, 0, 7, 0], [0, 4, 7, 0]], [[0, 4, 0, 4], [4, 0, 5, 0], [0, 2, 4, 0]], [[0, 3, 0, 1], [2, 0, 0, 1], [0, 1, 2, 0]], [[0, 3, 0, 7], [3, 0, 0, 6], [3, 0, 0, 5]], [[4, 0, 7, 0], [3, 0, 5, 0], [0, 3, 2, 0]], [[4, 0, 4, 0], [4, 0, 3, 0], [4, 0, 0, 1]], [[3, 0, 0, 5], [0, 3, 0, 3], [1, 0, 5, 0]], [[0, 2, 0, 6], [4, 0, 3, 0], [3, 0, 0, 6]], [[3, 0, 0, 8], [0, 3, 0, 5], [0, 2, 0, 1]], [[0, 4, 0, 6], [3, 0, 0, 6], [0, 1, 1, 0]], [[1, 0, 0, 8], [1, 0, 0, 6], [0, 3, 0, 5]], [[0, 5, 7, 0], [2, 0, 7, 0], [2, 0, 6, 0]], [[1, 0, 7, 0], [1, 0, 0, 2], [1, 0, 4, 0]], [[0, 5, 0, 8], [1, 0, 0, 3], [1, 0, 8, 0]], [[0, 2, 0, 4], [4, 0, 7, 0], [4, 0, 0, 3]], [[0, 4, 0, 4], [5, 0, 0, 3], [0, 3, 4, 0]], [[0, 3, 0, 9], [3, 0, 4, 0], [0, 3, 4, 0]], [[0, 4, 0, 8], [2, 0, 0, 6], [1, 0, 3, 0]], [[3, 0, 6, 0], [3, 0, 5, 0], [0, 2, 6, 0]], [[4, 0, 0, 6], [4, 0, 0, 5], [4, 0, 0, 3]], [[0, 5, 6, 0], [0, 4, 4, 0], [0, 4, 0, 1]], [[4, 0, 0, 5], [3, 0, 0, 3], [3, 0, 0, 1]], [[3, 0, 0, 6], [2, 0, 6, 0], [1, 0, 0, 5]], [[4, 0, 2, 0], [0, 3, 0, 3], [0, 3, 1, 0]], [[5, 0, 7, 0], [0, 4, 6, 0], [0, 4, 3, 0]], [[0, 3, 9, 0], [0, 3, 0, 3], [0, 1, 7, 0]], [[0, 4, 7, 0], [3, 0, 7, 0], [0, 1, 6, 0]], [[4, 0, 7, 0], [0, 4, 6, 0], [4, 0, 4, 0]], [[0, 3, 0, 8], [3, 0, 0, 6], [0, 1, 2, 0]], [[0, 0, 0, 0]]]
